NAME : XML100_2314_18
DIMENSION : 101
NB_CLUSTERS : 4
CLUSTERING_ALG : KMedoids
CLUSTERING_PARAMS : k(3)
CLUSTERS
1 0
2 2 7 9 12 13 21 24 26 29 36 37 40 44 46 52 53 55 56 57 63 65 66 67 68 72 73 81 82 84 85 86 88 89 93 94 96 98
3 3 4 5 8 10 14 16 17 18 19 20 23 27 28 30 31 32 33 34 35 38 41 42 43 47 48 49 54 60 61 62 64 69 71 74 79 80 83 91 95 99
4 1 6 11 15 22 25 39 45 50 51 58 59 70 75 76 77 78 87 90 92 97 100
EOF